beginners/solutions/Exercise4a.out.smt2
sat
(
(define-fun j11 () Int 0)
(define-fun j12 () Int 25)
(define-fun j21 () Int 0)
(define-fun j22 () Int 21)
(define-fun j31 () Int 15)
(define-fun j32 () Int 20)
)
unsat
